array [1..2] of int: X_INTRODUCED_29_ = [1,-1];
array [1..2] of int: X_INTRODUCED_118_ = [2,-1];
var 0..36: X_INTRODUCED_0_;
var 0..36: X_INTRODUCED_1_;
var 0..36: X_INTRODUCED_2_;
var 0..36: X_INTRODUCED_3_;
var 0..36: X_INTRODUCED_4_;
var 0..36: X_INTRODUCED_5_;
var 0..36: X_INTRODUCED_6_;
var 0..36: X_INTRODUCED_7_;
var 0..36: X_INTRODUCED_8_;
var 0..36: X_INTRODUCED_9_;
var 0..36: X_INTRODUCED_10_;
var 0..36: X_INTRODUCED_11_;
var 6..14: W:: is_defined_var:: output_var;
var 6..14: H:: is_defined_var:: output_var;
var 0..196: X_INTRODUCED_12_:: is_defined_var;
var 2..38: X_INTRODUCED_15_ ::var_is_introduced :: is_defined_var;
var 3..39: X_INTRODUCED_16_ ::var_is_introduced :: is_defined_var;
var 4..40: X_INTRODUCED_17_ ::var_is_introduced :: is_defined_var;
var 5..41: X_INTRODUCED_18_ ::var_is_introduced :: is_defined_var;
var 6..42: X_INTRODUCED_19_ ::var_is_introduced :: is_defined_var;
var 1..37: X_INTRODUCED_23_ ::var_is_introduced :: is_defined_var;
var 2..38: X_INTRODUCED_30_ ::var_is_introduced :: is_defined_var;
var 3..39: X_INTRODUCED_31_ ::var_is_introduced :: is_defined_var;
var 4..40: X_INTRODUCED_32_ ::var_is_introduced :: is_defined_var;
var 5..41: X_INTRODUCED_33_ ::var_is_introduced :: is_defined_var;
var 2..38: X_INTRODUCED_36_ ::var_is_introduced :: is_defined_var;
var 3..39: X_INTRODUCED_37_ ::var_is_introduced :: is_defined_var;
var 4..40: X_INTRODUCED_38_ ::var_is_introduced :: is_defined_var;
var 5..41: X_INTRODUCED_39_ ::var_is_introduced :: is_defined_var;
var 6..42: X_INTRODUCED_40_ ::var_is_introduced :: is_defined_var;
var 1..37: X_INTRODUCED_44_ ::var_is_introduced :: is_defined_var;
var 2..38: X_INTRODUCED_50_ ::var_is_introduced :: is_defined_var;
var 3..39: X_INTRODUCED_51_ ::var_is_introduced :: is_defined_var;
var 4..40: X_INTRODUCED_52_ ::var_is_introduced :: is_defined_var;
var 5..41: X_INTRODUCED_53_ ::var_is_introduced :: is_defined_var;
var bool: X_INTRODUCED_56_ ::var_is_introduced :: is_defined_var;
var bool: X_INTRODUCED_57_ ::var_is_introduced :: is_defined_var;
var bool: X_INTRODUCED_58_ ::var_is_introduced :: is_defined_var;
var bool: X_INTRODUCED_59_ ::var_is_introduced :: is_defined_var;
var bool: X_INTRODUCED_60_ ::var_is_introduced :: is_defined_var;
var bool: X_INTRODUCED_61_ ::var_is_introduced :: is_defined_var;
var bool: X_INTRODUCED_62_ ::var_is_introduced :: is_defined_var;
var bool: X_INTRODUCED_63_ ::var_is_introduced :: is_defined_var;
var bool: X_INTRODUCED_64_ ::var_is_introduced :: is_defined_var;
var bool: X_INTRODUCED_65_ ::var_is_introduced :: is_defined_var;
var bool: X_INTRODUCED_66_ ::var_is_introduced :: is_defined_var;
var bool: X_INTRODUCED_67_ ::var_is_introduced :: is_defined_var;
var bool: X_INTRODUCED_68_ ::var_is_introduced :: is_defined_var;
var bool: X_INTRODUCED_69_ ::var_is_introduced :: is_defined_var;
var bool: X_INTRODUCED_70_ ::var_is_introduced :: is_defined_var;
var bool: X_INTRODUCED_71_ ::var_is_introduced :: is_defined_var;
var bool: X_INTRODUCED_72_ ::var_is_introduced :: is_defined_var;
var bool: X_INTRODUCED_73_ ::var_is_introduced :: is_defined_var;
var bool: X_INTRODUCED_74_ ::var_is_introduced :: is_defined_var;
var bool: X_INTRODUCED_75_ ::var_is_introduced :: is_defined_var;
var bool: X_INTRODUCED_76_ ::var_is_introduced :: is_defined_var;
var bool: X_INTRODUCED_77_ ::var_is_introduced :: is_defined_var;
var bool: X_INTRODUCED_78_ ::var_is_introduced :: is_defined_var;
var bool: X_INTRODUCED_79_ ::var_is_introduced :: is_defined_var;
var bool: X_INTRODUCED_80_ ::var_is_introduced :: is_defined_var;
var bool: X_INTRODUCED_81_ ::var_is_introduced :: is_defined_var;
var bool: X_INTRODUCED_82_ ::var_is_introduced :: is_defined_var;
var bool: X_INTRODUCED_83_ ::var_is_introduced :: is_defined_var;
var bool: X_INTRODUCED_84_ ::var_is_introduced :: is_defined_var;
var bool: X_INTRODUCED_85_ ::var_is_introduced :: is_defined_var;
var bool: X_INTRODUCED_86_ ::var_is_introduced :: is_defined_var;
var bool: X_INTRODUCED_87_ ::var_is_introduced :: is_defined_var;
var bool: X_INTRODUCED_88_ ::var_is_introduced :: is_defined_var;
var bool: X_INTRODUCED_89_ ::var_is_introduced :: is_defined_var;
var bool: X_INTRODUCED_90_ ::var_is_introduced :: is_defined_var;
var bool: X_INTRODUCED_91_ ::var_is_introduced :: is_defined_var;
var bool: X_INTRODUCED_92_ ::var_is_introduced :: is_defined_var;
var bool: X_INTRODUCED_93_ ::var_is_introduced :: is_defined_var;
var bool: X_INTRODUCED_94_ ::var_is_introduced :: is_defined_var;
var bool: X_INTRODUCED_95_ ::var_is_introduced :: is_defined_var;
var bool: X_INTRODUCED_96_ ::var_is_introduced :: is_defined_var;
var bool: X_INTRODUCED_97_ ::var_is_introduced :: is_defined_var;
var bool: X_INTRODUCED_98_ ::var_is_introduced :: is_defined_var;
var bool: X_INTRODUCED_99_ ::var_is_introduced :: is_defined_var;
var bool: X_INTRODUCED_100_ ::var_is_introduced :: is_defined_var;
var bool: X_INTRODUCED_101_ ::var_is_introduced :: is_defined_var;
var bool: X_INTRODUCED_102_ ::var_is_introduced :: is_defined_var;
var bool: X_INTRODUCED_103_ ::var_is_introduced :: is_defined_var;
var bool: X_INTRODUCED_104_ ::var_is_introduced :: is_defined_var;
var bool: X_INTRODUCED_105_ ::var_is_introduced :: is_defined_var;
var bool: X_INTRODUCED_106_ ::var_is_introduced :: is_defined_var;
var bool: X_INTRODUCED_107_ ::var_is_introduced :: is_defined_var;
var bool: X_INTRODUCED_108_ ::var_is_introduced :: is_defined_var;
var bool: X_INTRODUCED_109_ ::var_is_introduced :: is_defined_var;
var bool: X_INTRODUCED_110_ ::var_is_introduced :: is_defined_var;
var bool: X_INTRODUCED_111_ ::var_is_introduced :: is_defined_var;
var bool: X_INTRODUCED_112_ ::var_is_introduced :: is_defined_var;
var bool: X_INTRODUCED_113_ ::var_is_introduced :: is_defined_var;
var bool: X_INTRODUCED_114_ ::var_is_introduced :: is_defined_var;
var bool: X_INTRODUCED_115_ ::var_is_introduced :: is_defined_var;
array [1..6] of var int: x:: output_array([1..6]) = [X_INTRODUCED_0_,X_INTRODUCED_1_,X_INTRODUCED_2_,X_INTRODUCED_3_,X_INTRODUCED_4_,X_INTRODUCED_5_];
array [1..6] of var int: y:: output_array([1..6]) = [X_INTRODUCED_6_,X_INTRODUCED_7_,X_INTRODUCED_8_,X_INTRODUCED_9_,X_INTRODUCED_10_,X_INTRODUCED_11_];
constraint int_lin_eq(X_INTRODUCED_29_,[X_INTRODUCED_23_,X_INTRODUCED_0_],1):: defines_var(X_INTRODUCED_23_);
constraint int_max(X_INTRODUCED_15_,X_INTRODUCED_23_,X_INTRODUCED_30_):: defines_var(X_INTRODUCED_30_);
constraint int_max(X_INTRODUCED_16_,X_INTRODUCED_30_,X_INTRODUCED_31_):: defines_var(X_INTRODUCED_31_);
constraint int_max(X_INTRODUCED_17_,X_INTRODUCED_31_,X_INTRODUCED_32_):: defines_var(X_INTRODUCED_32_);
constraint int_max(X_INTRODUCED_18_,X_INTRODUCED_32_,X_INTRODUCED_33_):: defines_var(X_INTRODUCED_33_);
constraint int_max(X_INTRODUCED_19_,X_INTRODUCED_33_,W):: defines_var(W);
constraint int_lin_eq(X_INTRODUCED_29_,[X_INTRODUCED_44_,X_INTRODUCED_6_],1):: defines_var(X_INTRODUCED_44_);
constraint int_max(X_INTRODUCED_36_,X_INTRODUCED_44_,X_INTRODUCED_50_):: defines_var(X_INTRODUCED_50_);
constraint int_max(X_INTRODUCED_37_,X_INTRODUCED_50_,X_INTRODUCED_51_):: defines_var(X_INTRODUCED_51_);
constraint int_max(X_INTRODUCED_38_,X_INTRODUCED_51_,X_INTRODUCED_52_):: defines_var(X_INTRODUCED_52_);
constraint int_max(X_INTRODUCED_39_,X_INTRODUCED_52_,X_INTRODUCED_53_):: defines_var(X_INTRODUCED_53_);
constraint int_max(X_INTRODUCED_40_,X_INTRODUCED_53_,H):: defines_var(H);
constraint array_bool_or([X_INTRODUCED_56_,X_INTRODUCED_57_,X_INTRODUCED_58_,X_INTRODUCED_59_],true);
constraint array_bool_or([X_INTRODUCED_60_,X_INTRODUCED_61_,X_INTRODUCED_62_,X_INTRODUCED_63_],true);
constraint array_bool_or([X_INTRODUCED_64_,X_INTRODUCED_65_,X_INTRODUCED_66_,X_INTRODUCED_67_],true);
constraint array_bool_or([X_INTRODUCED_68_,X_INTRODUCED_69_,X_INTRODUCED_70_,X_INTRODUCED_71_],true);
constraint array_bool_or([X_INTRODUCED_72_,X_INTRODUCED_73_,X_INTRODUCED_74_,X_INTRODUCED_75_],true);
constraint array_bool_or([X_INTRODUCED_76_,X_INTRODUCED_77_,X_INTRODUCED_78_,X_INTRODUCED_79_],true);
constraint array_bool_or([X_INTRODUCED_80_,X_INTRODUCED_81_,X_INTRODUCED_82_,X_INTRODUCED_83_],true);
constraint array_bool_or([X_INTRODUCED_84_,X_INTRODUCED_85_,X_INTRODUCED_86_,X_INTRODUCED_87_],true);
constraint array_bool_or([X_INTRODUCED_88_,X_INTRODUCED_89_,X_INTRODUCED_90_,X_INTRODUCED_91_],true);
constraint array_bool_or([X_INTRODUCED_92_,X_INTRODUCED_93_,X_INTRODUCED_94_,X_INTRODUCED_95_],true);
constraint array_bool_or([X_INTRODUCED_96_,X_INTRODUCED_97_,X_INTRODUCED_98_,X_INTRODUCED_99_],true);
constraint array_bool_or([X_INTRODUCED_100_,X_INTRODUCED_101_,X_INTRODUCED_102_,X_INTRODUCED_103_],true);
constraint array_bool_or([X_INTRODUCED_104_,X_INTRODUCED_105_,X_INTRODUCED_106_,X_INTRODUCED_107_],true);
constraint array_bool_or([X_INTRODUCED_108_,X_INTRODUCED_109_,X_INTRODUCED_110_,X_INTRODUCED_111_],true);
constraint array_bool_or([X_INTRODUCED_112_,X_INTRODUCED_113_,X_INTRODUCED_114_,X_INTRODUCED_115_],true);
constraint int_lin_le(X_INTRODUCED_118_,[X_INTRODUCED_5_,W],-1);
constraint int_lin_le(X_INTRODUCED_118_,[X_INTRODUCED_11_,H],-1);
constraint int_times(W,H,X_INTRODUCED_12_):: defines_var(X_INTRODUCED_12_);
constraint int_lin_eq([1,-1],[X_INTRODUCED_1_,X_INTRODUCED_15_],-2):: defines_var(X_INTRODUCED_15_);
constraint int_lin_eq([1,-1],[X_INTRODUCED_2_,X_INTRODUCED_16_],-3):: defines_var(X_INTRODUCED_16_);
constraint int_lin_eq([1,-1],[X_INTRODUCED_3_,X_INTRODUCED_17_],-4):: defines_var(X_INTRODUCED_17_);
constraint int_lin_eq([1,-1],[X_INTRODUCED_4_,X_INTRODUCED_18_],-5):: defines_var(X_INTRODUCED_18_);
constraint int_lin_eq([1,-1],[X_INTRODUCED_5_,X_INTRODUCED_19_],-6):: defines_var(X_INTRODUCED_19_);
constraint int_lin_eq([1,-1],[X_INTRODUCED_7_,X_INTRODUCED_36_],-2):: defines_var(X_INTRODUCED_36_);
constraint int_lin_eq([1,-1],[X_INTRODUCED_8_,X_INTRODUCED_37_],-3):: defines_var(X_INTRODUCED_37_);
constraint int_lin_eq([1,-1],[X_INTRODUCED_9_,X_INTRODUCED_38_],-4):: defines_var(X_INTRODUCED_38_);
constraint int_lin_eq([1,-1],[X_INTRODUCED_10_,X_INTRODUCED_39_],-5):: defines_var(X_INTRODUCED_39_);
constraint int_lin_eq([1,-1],[X_INTRODUCED_11_,X_INTRODUCED_40_],-6):: defines_var(X_INTRODUCED_40_);
constraint int_lin_le_reif(X_INTRODUCED_29_,[X_INTRODUCED_0_,X_INTRODUCED_1_],-1,X_INTRODUCED_56_):: defines_var(X_INTRODUCED_56_);
constraint int_lin_le_reif(X_INTRODUCED_29_,[X_INTRODUCED_6_,X_INTRODUCED_7_],-1,X_INTRODUCED_57_):: defines_var(X_INTRODUCED_57_);
constraint int_lin_le_reif(X_INTRODUCED_29_,[X_INTRODUCED_1_,X_INTRODUCED_0_],-2,X_INTRODUCED_58_):: defines_var(X_INTRODUCED_58_);
constraint int_lin_le_reif(X_INTRODUCED_29_,[X_INTRODUCED_7_,X_INTRODUCED_6_],-2,X_INTRODUCED_59_):: defines_var(X_INTRODUCED_59_);
constraint int_lin_le_reif(X_INTRODUCED_29_,[X_INTRODUCED_0_,X_INTRODUCED_2_],-1,X_INTRODUCED_60_):: defines_var(X_INTRODUCED_60_);
constraint int_lin_le_reif(X_INTRODUCED_29_,[X_INTRODUCED_6_,X_INTRODUCED_8_],-1,X_INTRODUCED_61_):: defines_var(X_INTRODUCED_61_);
constraint int_lin_le_reif(X_INTRODUCED_29_,[X_INTRODUCED_2_,X_INTRODUCED_0_],-3,X_INTRODUCED_62_):: defines_var(X_INTRODUCED_62_);
constraint int_lin_le_reif(X_INTRODUCED_29_,[X_INTRODUCED_8_,X_INTRODUCED_6_],-3,X_INTRODUCED_63_):: defines_var(X_INTRODUCED_63_);
constraint int_lin_le_reif(X_INTRODUCED_29_,[X_INTRODUCED_0_,X_INTRODUCED_3_],-1,X_INTRODUCED_64_):: defines_var(X_INTRODUCED_64_);
constraint int_lin_le_reif(X_INTRODUCED_29_,[X_INTRODUCED_6_,X_INTRODUCED_9_],-1,X_INTRODUCED_65_):: defines_var(X_INTRODUCED_65_);
constraint int_lin_le_reif(X_INTRODUCED_29_,[X_INTRODUCED_3_,X_INTRODUCED_0_],-4,X_INTRODUCED_66_):: defines_var(X_INTRODUCED_66_);
constraint int_lin_le_reif(X_INTRODUCED_29_,[X_INTRODUCED_9_,X_INTRODUCED_6_],-4,X_INTRODUCED_67_):: defines_var(X_INTRODUCED_67_);
constraint int_lin_le_reif(X_INTRODUCED_29_,[X_INTRODUCED_0_,X_INTRODUCED_4_],-1,X_INTRODUCED_68_):: defines_var(X_INTRODUCED_68_);
constraint int_lin_le_reif(X_INTRODUCED_29_,[X_INTRODUCED_6_,X_INTRODUCED_10_],-1,X_INTRODUCED_69_):: defines_var(X_INTRODUCED_69_);
constraint int_lin_le_reif(X_INTRODUCED_29_,[X_INTRODUCED_4_,X_INTRODUCED_0_],-5,X_INTRODUCED_70_):: defines_var(X_INTRODUCED_70_);
constraint int_lin_le_reif(X_INTRODUCED_29_,[X_INTRODUCED_10_,X_INTRODUCED_6_],-5,X_INTRODUCED_71_):: defines_var(X_INTRODUCED_71_);
constraint int_lin_le_reif(X_INTRODUCED_29_,[X_INTRODUCED_0_,X_INTRODUCED_5_],-1,X_INTRODUCED_72_):: defines_var(X_INTRODUCED_72_);
constraint int_lin_le_reif(X_INTRODUCED_29_,[X_INTRODUCED_6_,X_INTRODUCED_11_],-1,X_INTRODUCED_73_):: defines_var(X_INTRODUCED_73_);
constraint int_lin_le_reif(X_INTRODUCED_29_,[X_INTRODUCED_5_,X_INTRODUCED_0_],-6,X_INTRODUCED_74_):: defines_var(X_INTRODUCED_74_);
constraint int_lin_le_reif(X_INTRODUCED_29_,[X_INTRODUCED_11_,X_INTRODUCED_6_],-6,X_INTRODUCED_75_):: defines_var(X_INTRODUCED_75_);
constraint int_lin_le_reif(X_INTRODUCED_29_,[X_INTRODUCED_1_,X_INTRODUCED_2_],-2,X_INTRODUCED_76_):: defines_var(X_INTRODUCED_76_);
constraint int_lin_le_reif(X_INTRODUCED_29_,[X_INTRODUCED_7_,X_INTRODUCED_8_],-2,X_INTRODUCED_77_):: defines_var(X_INTRODUCED_77_);
constraint int_lin_le_reif(X_INTRODUCED_29_,[X_INTRODUCED_2_,X_INTRODUCED_1_],-3,X_INTRODUCED_78_):: defines_var(X_INTRODUCED_78_);
constraint int_lin_le_reif(X_INTRODUCED_29_,[X_INTRODUCED_8_,X_INTRODUCED_7_],-3,X_INTRODUCED_79_):: defines_var(X_INTRODUCED_79_);
constraint int_lin_le_reif(X_INTRODUCED_29_,[X_INTRODUCED_1_,X_INTRODUCED_3_],-2,X_INTRODUCED_80_):: defines_var(X_INTRODUCED_80_);
constraint int_lin_le_reif(X_INTRODUCED_29_,[X_INTRODUCED_7_,X_INTRODUCED_9_],-2,X_INTRODUCED_81_):: defines_var(X_INTRODUCED_81_);
constraint int_lin_le_reif(X_INTRODUCED_29_,[X_INTRODUCED_3_,X_INTRODUCED_1_],-4,X_INTRODUCED_82_):: defines_var(X_INTRODUCED_82_);
constraint int_lin_le_reif(X_INTRODUCED_29_,[X_INTRODUCED_9_,X_INTRODUCED_7_],-4,X_INTRODUCED_83_):: defines_var(X_INTRODUCED_83_);
constraint int_lin_le_reif(X_INTRODUCED_29_,[X_INTRODUCED_1_,X_INTRODUCED_4_],-2,X_INTRODUCED_84_):: defines_var(X_INTRODUCED_84_);
constraint int_lin_le_reif(X_INTRODUCED_29_,[X_INTRODUCED_7_,X_INTRODUCED_10_],-2,X_INTRODUCED_85_):: defines_var(X_INTRODUCED_85_);
constraint int_lin_le_reif(X_INTRODUCED_29_,[X_INTRODUCED_4_,X_INTRODUCED_1_],-5,X_INTRODUCED_86_):: defines_var(X_INTRODUCED_86_);
constraint int_lin_le_reif(X_INTRODUCED_29_,[X_INTRODUCED_10_,X_INTRODUCED_7_],-5,X_INTRODUCED_87_):: defines_var(X_INTRODUCED_87_);
constraint int_lin_le_reif(X_INTRODUCED_29_,[X_INTRODUCED_1_,X_INTRODUCED_5_],-2,X_INTRODUCED_88_):: defines_var(X_INTRODUCED_88_);
constraint int_lin_le_reif(X_INTRODUCED_29_,[X_INTRODUCED_7_,X_INTRODUCED_11_],-2,X_INTRODUCED_89_):: defines_var(X_INTRODUCED_89_);
constraint int_lin_le_reif(X_INTRODUCED_29_,[X_INTRODUCED_5_,X_INTRODUCED_1_],-6,X_INTRODUCED_90_):: defines_var(X_INTRODUCED_90_);
constraint int_lin_le_reif(X_INTRODUCED_29_,[X_INTRODUCED_11_,X_INTRODUCED_7_],-6,X_INTRODUCED_91_):: defines_var(X_INTRODUCED_91_);
constraint int_lin_le_reif(X_INTRODUCED_29_,[X_INTRODUCED_2_,X_INTRODUCED_3_],-3,X_INTRODUCED_92_):: defines_var(X_INTRODUCED_92_);
constraint int_lin_le_reif(X_INTRODUCED_29_,[X_INTRODUCED_8_,X_INTRODUCED_9_],-3,X_INTRODUCED_93_):: defines_var(X_INTRODUCED_93_);
constraint int_lin_le_reif(X_INTRODUCED_29_,[X_INTRODUCED_3_,X_INTRODUCED_2_],-4,X_INTRODUCED_94_):: defines_var(X_INTRODUCED_94_);
constraint int_lin_le_reif(X_INTRODUCED_29_,[X_INTRODUCED_9_,X_INTRODUCED_8_],-4,X_INTRODUCED_95_):: defines_var(X_INTRODUCED_95_);
constraint int_lin_le_reif(X_INTRODUCED_29_,[X_INTRODUCED_2_,X_INTRODUCED_4_],-3,X_INTRODUCED_96_):: defines_var(X_INTRODUCED_96_);
constraint int_lin_le_reif(X_INTRODUCED_29_,[X_INTRODUCED_8_,X_INTRODUCED_10_],-3,X_INTRODUCED_97_):: defines_var(X_INTRODUCED_97_);
constraint int_lin_le_reif(X_INTRODUCED_29_,[X_INTRODUCED_4_,X_INTRODUCED_2_],-5,X_INTRODUCED_98_):: defines_var(X_INTRODUCED_98_);
constraint int_lin_le_reif(X_INTRODUCED_29_,[X_INTRODUCED_10_,X_INTRODUCED_8_],-5,X_INTRODUCED_99_):: defines_var(X_INTRODUCED_99_);
constraint int_lin_le_reif(X_INTRODUCED_29_,[X_INTRODUCED_2_,X_INTRODUCED_5_],-3,X_INTRODUCED_100_):: defines_var(X_INTRODUCED_100_);
constraint int_lin_le_reif(X_INTRODUCED_29_,[X_INTRODUCED_8_,X_INTRODUCED_11_],-3,X_INTRODUCED_101_):: defines_var(X_INTRODUCED_101_);
constraint int_lin_le_reif(X_INTRODUCED_29_,[X_INTRODUCED_5_,X_INTRODUCED_2_],-6,X_INTRODUCED_102_):: defines_var(X_INTRODUCED_102_);
constraint int_lin_le_reif(X_INTRODUCED_29_,[X_INTRODUCED_11_,X_INTRODUCED_8_],-6,X_INTRODUCED_103_):: defines_var(X_INTRODUCED_103_);
constraint int_lin_le_reif(X_INTRODUCED_29_,[X_INTRODUCED_3_,X_INTRODUCED_4_],-4,X_INTRODUCED_104_):: defines_var(X_INTRODUCED_104_);
constraint int_lin_le_reif(X_INTRODUCED_29_,[X_INTRODUCED_9_,X_INTRODUCED_10_],-4,X_INTRODUCED_105_):: defines_var(X_INTRODUCED_105_);
constraint int_lin_le_reif(X_INTRODUCED_29_,[X_INTRODUCED_4_,X_INTRODUCED_3_],-5,X_INTRODUCED_106_):: defines_var(X_INTRODUCED_106_);
constraint int_lin_le_reif(X_INTRODUCED_29_,[X_INTRODUCED_10_,X_INTRODUCED_9_],-5,X_INTRODUCED_107_):: defines_var(X_INTRODUCED_107_);
constraint int_lin_le_reif(X_INTRODUCED_29_,[X_INTRODUCED_3_,X_INTRODUCED_5_],-4,X_INTRODUCED_108_):: defines_var(X_INTRODUCED_108_);
constraint int_lin_le_reif(X_INTRODUCED_29_,[X_INTRODUCED_9_,X_INTRODUCED_11_],-4,X_INTRODUCED_109_):: defines_var(X_INTRODUCED_109_);
constraint int_lin_le_reif(X_INTRODUCED_29_,[X_INTRODUCED_5_,X_INTRODUCED_3_],-6,X_INTRODUCED_110_):: defines_var(X_INTRODUCED_110_);
constraint int_lin_le_reif(X_INTRODUCED_29_,[X_INTRODUCED_11_,X_INTRODUCED_9_],-6,X_INTRODUCED_111_):: defines_var(X_INTRODUCED_111_);
constraint int_lin_le_reif(X_INTRODUCED_29_,[X_INTRODUCED_4_,X_INTRODUCED_5_],-5,X_INTRODUCED_112_):: defines_var(X_INTRODUCED_112_);
constraint int_lin_le_reif(X_INTRODUCED_29_,[X_INTRODUCED_10_,X_INTRODUCED_11_],-5,X_INTRODUCED_113_):: defines_var(X_INTRODUCED_113_);
constraint int_lin_le_reif(X_INTRODUCED_29_,[X_INTRODUCED_5_,X_INTRODUCED_4_],-6,X_INTRODUCED_114_):: defines_var(X_INTRODUCED_114_);
constraint int_lin_le_reif(X_INTRODUCED_29_,[X_INTRODUCED_11_,X_INTRODUCED_10_],-6,X_INTRODUCED_115_):: defines_var(X_INTRODUCED_115_);
solve  minimize X_INTRODUCED_12_;
